
  32    1
  10

   0   0   2 2 3 
   6   1   3 7 6 4 
   2   2   2 6 4 
   8   6   3 9 8 5 
   2   6   3 13 12 10 
   9   1   3 13 12 10 
   4   3   3 13 12 10 
   1   3   4 16 13 12 11 
   4   6   5 19 16 15 14 13 
   2   1   4 20 16 14 11 
   6   2   4 19 18 17 15 
  10   4   4 23 20 18 17 
   8   6   4 23 21 20 18 
   9   5   2 23 17 
   3   6   4 25 23 22 21 
   8   4   1 17 
   1   5   3 25 22 21 
   3   4   5 28 27 26 25 24 
   1   7   4 31 28 27 24 
   2   5   3 27 25 24 
   2   5   3 31 28 27 
   7   5   2 27 24 
   9   5   2 28 27 
  10   4   2 30 29 
   6   2   2 31 29 
   9   1   2 30 29 
   7   4   1 29 
   6   4   1 30 
   6   5   1 32
   9   2   1 32
   9   6   1 32
   0   0   0 
